p cnf 17 23
-1 17 0 
-2 17 0 
-3 17 0 
-4 -1 17 0 
-5 -6 17 0 
-7 17 0 
-8 17 0 
-2 -9 17 0 
-2 -10 17 0 
-6 17 0 
-11 -12 16 -7 17 0 
-9 17 0 
-3 -9 17 0 
-3 -6 17 0 
-1 -5 17 0 
-13 15 17 0 
-14 17 0 
-15 13 17 0 
-5 -4 17 0 
-16 12 17 0 
-9 -6 17 0 
-5 -1 17 0 
-3 -1 17 0 
